/*********************************************
 * OPL 12.6.0.0 Data
 * Author: Adrian Rodriguez Bazaga, Pau Rodriguez Esmerats
 * Creation Date: 22/11/2017 at 18:56:20
 *********************************************/

nNurses=113;
maxConsec=2;
maxPresence=7;
maxHours=5;
minHours=1;
demand= [32 25 45 46 25 45 46 26 28 16 3 4 3 5 4 4 2 3 1 1 19 33 15 37  ];
